rsa_demo_benchmark_output/64/certs/0003.assert.smt2
; benchmark generated from python API
(set-info :status unknown)
(declare-fun p () Int)
(declare-fun q () Int)
(declare-fun n () Int)
(assert
 (= p 2621370379))
(assert
 (= q 3750713089))
(assert
 (= n 9832008191632190731))
(assert
 (let ((?x31 (* p q)))
 (= ?x31 n)))
(assert
 (> p 1))
(assert
 (> q 1))
(check-sat)
